p cnf 204 555
-13 1 0
-13 2 0
13 -1 -2 0
-14 3 0
-14 4 0
14 -3 -4 0
-15 13 0
-15 14 0
15 -13 -14 0
-16 2 0
-16 5 0
16 -2 -5 0
-17 1 0
-17 4 0
17 -1 -4 0
-18 16 0
-18 17 0
18 -16 -17 0
-19 -16 0
-19 -17 0
19 16 17 0
-20 -18 0
-20 -19 0
20 18 19 0
-21 15 0
-21 20 0
21 -15 -20 0
-22 -15 0
-22 -20 0
22 15 20 0
-23 -21 0
-23 -22 0
23 21 22 0
-24 3 0
-24 6 0
24 -3 -6 0
-25 23 0
-25 24 0
25 -23 -24 0
-26 -18 0
-26 -21 0
26 18 21 0
-27 2 0
-27 7 0
27 -2 -7 0
-28 4 0
-28 5 0
28 -4 -5 0
-29 27 0
-29 28 0
29 -27 -28 0
-30 -27 0
-30 -28 0
30 27 28 0
-31 -29 0
-31 -30 0
31 29 30 0
-32 -26 0
-32 31 0
32 26 -31 0
-33 26 0
-33 -31 0
33 -26 31 0
-34 -32 0
-34 -33 0
34 32 33 0
-35 1 0
-35 6 0
35 -1 -6 0
-36 34 0
-36 35 0
36 -34 -35 0
-37 -34 0
-37 -35 0
37 34 35 0
-38 -36 0
-38 -37 0
38 36 37 0
-39 25 0
-39 38 0
39 -25 -38 0
-40 -25 0
-40 -38 0
40 25 38 0
-41 -39 0
-41 -40 0
41 39 40 0
-42 3 0
-42 8 0
42 -3 -8 0
-43 41 0
-43 42 0
43 -41 -42 0
-44 -36 0
-44 -39 0
44 36 39 0
-45 -29 0
-45 -32 0
45 29 32 0
-46 2 0
-46 9 0
46 -2 -9 0
-47 4 0
-47 7 0
47 -4 -7 0
-48 46 0
-48 47 0
48 -46 -47 0
-49 -46 0
-49 -47 0
49 46 47 0
-50 -48 0
-50 -49 0
50 48 49 0
-51 -45 0
-51 50 0
51 45 -50 0
-52 45 0
-52 -50 0
52 -45 50 0
-53 -51 0
-53 -52 0
53 51 52 0
-54 5 0
-54 6 0
54 -5 -6 0
-55 53 0
-55 54 0
55 -53 -54 0
-56 -53 0
-56 -54 0
56 53 54 0
-57 -55 0
-57 -56 0
57 55 56 0
-58 -44 0
-58 57 0
58 44 -57 0
-59 44 0
-59 -57 0
59 -44 57 0
-60 -58 0
-60 -59 0
60 58 59 0
-61 1 0
-61 8 0
61 -1 -8 0
-62 60 0
-62 61 0
62 -60 -61 0
-63 -60 0
-63 -61 0
63 60 61 0
-64 -62 0
-64 -63 0
64 62 63 0
-65 43 0
-65 64 0
65 -43 -64 0
-66 -43 0
-66 -64 0
66 43 64 0
-67 -65 0
-67 -66 0
67 65 66 0
-68 3 0
-68 10 0
68 -3 -10 0
-69 67 0
-69 68 0
69 -67 -68 0
-70 -62 0
-70 -65 0
70 62 65 0
-71 -55 0
-71 -58 0
71 55 58 0
-72 -48 0
-72 -51 0
72 48 51 0
-73 2 0
-73 11 0
73 -2 -11 0
-74 4 0
-74 9 0
74 -4 -9 0
-75 73 0
-75 74 0
75 -73 -74 0
-76 -73 0
-76 -74 0
76 73 74 0
-77 -75 0
-77 -76 0
77 75 76 0
-78 -72 0
-78 77 0
78 72 -77 0
-79 72 0
-79 -77 0
79 -72 77 0
-80 -78 0
-80 -79 0
80 78 79 0
-81 6 0
-81 7 0
81 -6 -7 0
-82 80 0
-82 81 0
82 -80 -81 0
-83 -80 0
-83 -81 0
83 80 81 0
-84 -82 0
-84 -83 0
84 82 83 0
-85 -71 0
-85 84 0
85 71 -84 0
-86 71 0
-86 -84 0
86 -71 84 0
-87 -85 0
-87 -86 0
87 85 86 0
-88 5 0
-88 8 0
88 -5 -8 0
-89 87 0
-89 88 0
89 -87 -88 0
-90 -87 0
-90 -88 0
90 87 88 0
-91 -89 0
-91 -90 0
91 89 90 0
-92 -70 0
-92 91 0
92 70 -91 0
-93 70 0
-93 -91 0
93 -70 91 0
-94 -92 0
-94 -93 0
94 92 93 0
-95 1 0
-95 10 0
95 -1 -10 0
-96 94 0
-96 95 0
96 -94 -95 0
-97 -94 0
-97 -95 0
97 94 95 0
-98 -96 0
-98 -97 0
98 96 97 0
-99 69 0
-99 98 0
99 -69 -98 0
-100 -69 0
-100 -98 0
100 69 98 0
-101 -99 0
-101 -100 0
101 99 100 0
-102 3 0
-102 12 0
102 -3 -12 0
-103 101 0
-103 102 0
103 -101 -102 0
-104 -101 0
-104 -102 0
104 101 102 0
-105 -103 0
-105 -104 0
105 103 104 0
-106 17 0
-106 24 0
106 -17 -24 0
-107 -17 0
-107 -24 0
107 17 24 0
-108 -106 0
-108 -107 0
108 106 107 0
-109 15 0
-109 108 0
109 -15 -108 0
-110 -15 0
-110 -108 0
110 15 108 0
-111 -109 0
-111 -110 0
111 109 110 0
-112 16 0
-112 111 0
112 -16 -111 0
-113 -106 0
-113 -109 0
113 106 109 0
-114 35 0
-114 42 0
114 -35 -42 0
-115 -35 0
-115 -42 0
115 35 42 0
-116 -114 0
-116 -115 0
116 114 115 0
-117 -113 0
-117 116 0
117 113 -116 0
-118 113 0
-118 -116 0
118 -113 116 0
-119 -117 0
-119 -118 0
119 117 118 0
-120 28 0
-120 119 0
120 -28 -119 0
-121 -28 0
-121 -119 0
121 28 119 0
-122 -120 0
-122 -121 0
122 120 121 0
-123 112 0
-123 122 0
123 -112 -122 0
-124 -112 0
-124 -122 0
124 112 122 0
-125 -123 0
-125 -124 0
125 123 124 0
-126 27 0
-126 125 0
126 -27 -125 0
-127 -120 0
-127 -123 0
127 120 123 0
-128 -114 0
-128 -117 0
128 114 117 0
-129 61 0
-129 68 0
129 -61 -68 0
-130 -61 0
-130 -68 0
130 61 68 0
-131 -129 0
-131 -130 0
131 129 130 0
-132 -128 0
-132 131 0
132 128 -131 0
-133 128 0
-133 -131 0
133 -128 131 0
-134 -132 0
-134 -133 0
134 132 133 0
-135 54 0
-135 134 0
135 -54 -134 0
-136 -54 0
-136 -134 0
136 54 134 0
-137 -135 0
-137 -136 0
137 135 136 0
-138 -127 0
-138 137 0
138 127 -137 0
-139 127 0
-139 -137 0
139 -127 137 0
-140 -138 0
-140 -139 0
140 138 139 0
-141 47 0
-141 140 0
141 -47 -140 0
-142 -47 0
-142 -140 0
142 47 140 0
-143 -141 0
-143 -142 0
143 141 142 0
-144 126 0
-144 143 0
144 -126 -143 0
-145 -126 0
-145 -143 0
145 126 143 0
-146 -144 0
-146 -145 0
146 144 145 0
-147 46 0
-147 146 0
147 -46 -146 0
-148 -141 0
-148 -144 0
148 141 144 0
-149 -135 0
-149 -138 0
149 135 138 0
-150 -129 0
-150 -132 0
150 129 132 0
-151 95 0
-151 102 0
151 -95 -102 0
-152 -95 0
-152 -102 0
152 95 102 0
-153 -151 0
-153 -152 0
153 151 152 0
-154 -150 0
-154 153 0
154 150 -153 0
-155 150 0
-155 -153 0
155 -150 153 0
-156 -154 0
-156 -155 0
156 154 155 0
-157 88 0
-157 156 0
157 -88 -156 0
-158 -88 0
-158 -156 0
158 88 156 0
-159 -157 0
-159 -158 0
159 157 158 0
-160 -149 0
-160 159 0
160 149 -159 0
-161 149 0
-161 -159 0
161 -149 159 0
-162 -160 0
-162 -161 0
162 160 161 0
-163 81 0
-163 162 0
163 -81 -162 0
-164 -81 0
-164 -162 0
164 81 162 0
-165 -163 0
-165 -164 0
165 163 164 0
-166 -148 0
-166 165 0
166 148 -165 0
-167 148 0
-167 -165 0
167 -148 165 0
-168 -166 0
-168 -167 0
168 166 167 0
-169 74 0
-169 168 0
169 -74 -168 0
-170 -74 0
-170 -168 0
170 74 168 0
-171 -169 0
-171 -170 0
171 169 170 0
-172 147 0
-172 171 0
172 -147 -171 0
-173 -147 0
-173 -171 0
173 147 171 0
-174 -172 0
-174 -173 0
174 172 173 0
-175 73 0
-175 174 0
175 -73 -174 0
-176 -73 0
-176 -174 0
176 73 174 0
-177 -175 0
-177 -176 0
177 175 176 0
-178 105 0
-178 -177 0
-179 -105 0
-179 177 0
180 178 179 0
-181 -67 0
-181 -68 0
181 67 68 0
-182 -69 0
-182 -181 0
182 69 181 0
-183 -46 0
-183 -146 0
183 46 146 0
-184 -147 0
-184 -183 0
184 147 183 0
-185 182 0
-185 -184 0
-186 -182 0
-186 184 0
187 185 186 0
188 -180 -187 0
-189 -41 0
-189 -42 0
189 41 42 0
-190 -43 0
-190 -189 0
190 43 189 0
-191 -27 0
-191 -125 0
191 27 125 0
-192 -126 0
-192 -191 0
192 126 191 0
-193 190 0
-193 -192 0
-194 -190 0
-194 192 0
195 193 194 0
196 -188 -195 0
-197 -23 0
-197 -24 0
197 23 24 0
-198 -25 0
-198 -197 0
198 25 197 0
-199 -16 0
-199 -111 0
199 16 111 0
-200 -112 0
-200 -199 0
200 112 199 0
-201 198 0
-201 -200 0
-202 -198 0
-202 200 0
203 201 202 0
204 -196 -203 0
-204 0
